NAME 
ROWS
 N  OBJ
 L  R0      
 E  R1      
 E  R2      
 E  R3      
 E  R4      
 E  R5      
COLUMNS
    MARKER    'MARKER'                 'INTORG'
    I0(5)     OBJ       30
    I0(5)     R0        -69
    I0(5)     R1        4
    I0(5)     R2        8
    I0(5)     R3        16
    I0(5)     R5        1
    I1(3)     OBJ       -153
    I1(3)     R0        -56
    I1(3)     R1        1
    I1(3)     R5        1
    I2(4)     OBJ       99
    I2(4)     R0        198
    I2(4)     R1        17
    I2(4)     R2        14
    I2(4)     R5        1
    MARKER    'MARKER'                 'INTEND'
    C3(3)     OBJ       -3
    C3(3)     R0        -3
    C3(3)     R1        10
    C3(3)     R3        -1
    C4(5)     OBJ       4
    C4(5)     R0        5
    C4(5)     R1        1
    C4(5)     R2        1
    C4(5)     R3        8
    C4(5)     R4        4
    C5(1)     R1        1
    C6(1)     R2        1
    C7(1)     R3        1
    C8(1)     R4        1
    C9(1)     R5        1
RHS
    RHS1      R0        -7.5199999999999989e+01
    RHS1      R1        65
    RHS1      R2        59
    RHS1      R3        84
    RHS1      R4        67
    RHS1      R5        1
BOUNDS
 UP BND1      I0(5)     1
 UP BND1      I1(3)     1
 UP BND1      I2(4)     1
ENDATA
